#from Caballero, Grossmann (Design of distillation sequences: from conventional to fully thermally coupled distillation systems, Computers & Chemical Engineering)
#example 2

set C := 1, 2, 3, 4, 5;

param alpha := 1 10.5 2 4.04 3 1.76 4 1.31 5 1.0;